(set-info :smt-lib-version 2.6)
(set-logic QF_UF)
(set-info :source |
Generated by: Aman Goel (amangoel@umich.edu), Karem A. Sakallah (karem@umich.edu)
Generated on: 2018-04-06

Generated by the tool Averroes 2 (successor of [1]) which implements safety property
verification on hardware systems.

This SMT problem belongs to a set of SMT problems generated by applying Averroes 2
to benchmarks derived from [2-5].

A total of 412 systems (345 from [2], 19 from [3], 26 from [4], 22 from [5]) were
syntactically converted from their original formats (using [6, 7]), and given to 
Averroes 2 to perform property checking with abstraction (wide bit-vectors -> terms, 
wide operators -> UF) using SMT solvers [8, 9].

[1] Lee S., Sakallah K.A. (2014) Unbounded Scalable Verification Based on Approximate
Property-Directed Reachability and Datapath Abstraction. In: Biere A., Bloem R. (eds)
Computer Aided Verification. CAV 2014. Lecture Notes in Computer Science, vol 8559.
Springer, Cham
[2] http://fmv.jku.at/aiger/index.html#beem
[3] http://www.cs.cmu.edu/~modelcheck/vcegar
[4] http://www.cprover.org/hardware/v2c
[5] http://github.com/aman-goel/verilogbench
[6] http://www.clifford.at/yosys
[7] http://github.com/chengyinwu/V3
[8] http://github.com/Z3Prover/z3
[9] http://github.com/SRI-CSL/yices2

id: rether.5.prop1
query-maker: "Yices 2"
query-time: 0.002000 ms
query-class: abstract
query-category: oneshot
query-type: regular
status: unsat
|)
(set-info :license "https://creativecommons.org/licenses/by/4.0/")
(set-info :category "industrial")

;
(set-info :status unsat)
(declare-sort utt$8 0)
(declare-sort utt$32 0)
(declare-fun y$1 () Bool)
(declare-fun y$101 () Bool)
(declare-fun y$103 () Bool)
(declare-fun y$105 () Bool)
(declare-fun y$107 () Bool)
(declare-fun y$109 () Bool)
(declare-fun y$11 () Bool)
(declare-fun y$111 () Bool)
(declare-fun y$113 () Bool)
(declare-fun y$115 () Bool)
(declare-fun y$117 () Bool)
(declare-fun y$119 () Bool)
(declare-fun y$121 () Bool)
(declare-fun y$123 () Bool)
(declare-fun y$125 () Bool)
(declare-fun y$127 () Bool)
(declare-fun y$129 () Bool)
(declare-fun y$13 () Bool)
(declare-fun y$131 () Bool)
(declare-fun y$133 () Bool)
(declare-fun y$135 () Bool)
(declare-fun y$137 () Bool)
(declare-fun y$139 () Bool)
(declare-fun y$141 () Bool)
(declare-fun y$143 () Bool)
(declare-fun y$145 () Bool)
(declare-fun y$147 () Bool)
(declare-fun y$149 () Bool)
(declare-fun y$15 () Bool)
(declare-fun y$151 () Bool)
(declare-fun y$153 () Bool)
(declare-fun y$155 () Bool)
(declare-fun y$157 () Bool)
(declare-fun y$159 () Bool)
(declare-fun y$161 () Bool)
(declare-fun y$163 () Bool)
(declare-fun y$165 () Bool)
(declare-fun y$167 () Bool)
(declare-fun y$169 () Bool)
(declare-fun y$17 () Bool)
(declare-fun y$171 () Bool)
(declare-fun y$173 () Bool)
(declare-fun y$175 () Bool)
(declare-fun y$177 () Bool)
(declare-fun y$179 () Bool)
(declare-fun y$181 () Bool)
(declare-fun y$183 () Bool)
(declare-fun y$185 () Bool)
(declare-fun y$187 () Bool)
(declare-fun y$189 () Bool)
(declare-fun y$19 () Bool)
(declare-fun y$191 () Bool)
(declare-fun y$193 () Bool)
(declare-fun y$195 () Bool)
(declare-fun y$197 () Bool)
(declare-fun y$199 () Bool)
(declare-fun y$201 () Bool)
(declare-fun y$204 () Bool)
(declare-fun y$206 () Bool)
(declare-fun y$208 () Bool)
(declare-fun y$21 () Bool)
(declare-fun y$210 () Bool)
(declare-fun y$212 () Bool)
(declare-fun y$214 () Bool)
(declare-fun y$216 () Bool)
(declare-fun y$218 () Bool)
(declare-fun y$220 () Bool)
(declare-fun y$222 () Bool)
(declare-fun y$224 () Bool)
(declare-fun y$226 () Bool)
(declare-fun y$228 () Bool)
(declare-fun y$23 () Bool)
(declare-fun y$230 () Bool)
(declare-fun y$232 () Bool)
(declare-fun y$234 () Bool)
(declare-fun y$236 () Bool)
(declare-fun y$238 () Bool)
(declare-fun y$240 () Bool)
(declare-fun y$242 () Bool)
(declare-fun y$244 () Bool)
(declare-fun y$246 () Bool)
(declare-fun y$248 () Bool)
(declare-fun y$25 () Bool)
(declare-fun y$250 () Bool)
(declare-fun y$252 () Bool)
(declare-fun y$254 () Bool)
(declare-fun y$256 () Bool)
(declare-fun y$258 () Bool)
(declare-fun y$260 () Bool)
(declare-fun y$262 () Bool)
(declare-fun y$264 () Bool)
(declare-fun y$266 () Bool)
(declare-fun y$268 () Bool)
(declare-fun y$27 () Bool)
(declare-fun y$270 () Bool)
(declare-fun y$272 () Bool)
(declare-fun y$29 () Bool)
(declare-fun y$3 () Bool)
(declare-fun y$31 () Bool)
(declare-fun y$33 () Bool)
(declare-fun y$35 () Bool)
(declare-fun y$37 () Bool)
(declare-fun y$39 () Bool)
(declare-fun y$41 () Bool)
(declare-fun y$43 () Bool)
(declare-fun y$45 () Bool)
(declare-fun y$47 () Bool)
(declare-fun y$49 () Bool)
(declare-fun y$5 () Bool)
(declare-fun y$51 () Bool)
(declare-fun y$53 () Bool)
(declare-fun y$55 () Bool)
(declare-fun y$57 () Bool)
(declare-fun y$59 () Bool)
(declare-fun y$61 () Bool)
(declare-fun y$63 () Bool)
(declare-fun y$65 () Bool)
(declare-fun y$67 () Bool)
(declare-fun y$69 () Bool)
(declare-fun y$7 () Bool)
(declare-fun y$71 () Bool)
(declare-fun y$73 () Bool)
(declare-fun y$75 () Bool)
(declare-fun y$77 () Bool)
(declare-fun y$79 () Bool)
(declare-fun y$81 () Bool)
(declare-fun y$83 () Bool)
(declare-fun y$8453 () Bool)
(declare-fun y$8454 () Bool)
(declare-fun y$85 () Bool)
(declare-fun y$8617 () Bool)
(declare-fun y$8624 () Bool)
(declare-fun y$87 () Bool)
(declare-fun y$89 () Bool)
(declare-fun y$9 () Bool)
(declare-fun y$91 () Bool)
(declare-fun y$93 () Bool)
(declare-fun y$95 () Bool)
(declare-fun y$97 () Bool)
(declare-fun y$99 () Bool)
(declare-fun y$a_NRT_action_Node_0 () Bool)
(declare-fun y$a_NRT_action_Node_1 () Bool)
(declare-fun y$a_NRT_action_Node_2 () Bool)
(declare-fun y$a_NRT_action_Node_3 () Bool)
(declare-fun y$a_NRT_action_Node_4 () Bool)
(declare-fun y$a_NRT_action_Node_5 () Bool)
(declare-fun y$a_NRT_action_Node_6 () Bool)
(declare-fun y$a_NRT_action_Node_7 () Bool)
(declare-fun y$a_NRT_action_Node_8 () Bool)
(declare-fun y$a_NRT_action_Node_9 () Bool)
(declare-fun y$a_NRT_phase () Bool)
(declare-fun y$a_NRT_wait () Bool)
(declare-fun y$a_RT_action_Node_0 () Bool)
(declare-fun y$a_RT_action_Node_1 () Bool)
(declare-fun y$a_RT_action_Node_2 () Bool)
(declare-fun y$a_RT_action_Node_3 () Bool)
(declare-fun y$a_RT_action_Node_4 () Bool)
(declare-fun y$a_RT_action_Node_5 () Bool)
(declare-fun y$a_RT_action_Node_6 () Bool)
(declare-fun y$a_RT_action_Node_7 () Bool)
(declare-fun y$a_RT_action_Node_8 () Bool)
(declare-fun y$a_RT_action_Node_9 () Bool)
(declare-fun y$a_RT_phase () Bool)
(declare-fun y$a_RT_wait () Bool)
(declare-fun y$a_cycle_end () Bool)
(declare-fun y$a_error_st_Bandwidth () Bool)
(declare-fun y$a_error_st_Node_0 () Bool)
(declare-fun y$a_error_st_Node_1 () Bool)
(declare-fun y$a_error_st_Node_2 () Bool)
(declare-fun y$a_error_st_Node_3 () Bool)
(declare-fun y$a_error_st_Node_4 () Bool)
(declare-fun y$a_error_st_Node_5 () Bool)
(declare-fun y$a_error_st_Node_6 () Bool)
(declare-fun y$a_error_st_Node_7 () Bool)
(declare-fun y$a_error_st_Node_8 () Bool)
(declare-fun y$a_error_st_Node_9 () Bool)
(declare-fun y$a_finish_Node_0 () Bool)
(declare-fun y$a_finish_Node_1 () Bool)
(declare-fun y$a_finish_Node_2 () Bool)
(declare-fun y$a_finish_Node_3 () Bool)
(declare-fun y$a_finish_Node_4 () Bool)
(declare-fun y$a_finish_Node_5 () Bool)
(declare-fun y$a_finish_Node_6 () Bool)
(declare-fun y$a_finish_Node_7 () Bool)
(declare-fun y$a_finish_Node_8 () Bool)
(declare-fun y$a_finish_Node_9 () Bool)
(declare-fun y$a_idle_Bandwidth () Bool)
(declare-fun y$a_idle_Node_0 () Bool)
(declare-fun y$a_idle_Node_1 () Bool)
(declare-fun y$a_idle_Node_2 () Bool)
(declare-fun y$a_idle_Node_3 () Bool)
(declare-fun y$a_idle_Node_4 () Bool)
(declare-fun y$a_idle_Node_5 () Bool)
(declare-fun y$a_idle_Node_6 () Bool)
(declare-fun y$a_idle_Node_7 () Bool)
(declare-fun y$a_idle_Node_8 () Bool)
(declare-fun y$a_idle_Node_9 () Bool)
(declare-fun y$a_rel () Bool)
(declare-fun y$a_res () Bool)
(declare-fun y$a_reserved_Node_0 () Bool)
(declare-fun y$a_reserved_Node_1 () Bool)
(declare-fun y$a_reserved_Node_2 () Bool)
(declare-fun y$a_reserved_Node_3 () Bool)
(declare-fun y$a_reserved_Node_4 () Bool)
(declare-fun y$a_reserved_Node_5 () Bool)
(declare-fun y$a_reserved_Node_6 () Bool)
(declare-fun y$a_reserved_Node_7 () Bool)
(declare-fun y$a_reserved_Node_8 () Bool)
(declare-fun y$a_reserved_Node_9 () Bool)
(declare-fun y$a_start_Node_0 () Bool)
(declare-fun y$a_start_Node_1 () Bool)
(declare-fun y$a_start_Node_2 () Bool)
(declare-fun y$a_start_Node_3 () Bool)
(declare-fun y$a_start_Node_4 () Bool)
(declare-fun y$a_start_Node_5 () Bool)
(declare-fun y$a_start_Node_6 () Bool)
(declare-fun y$a_start_Node_7 () Bool)
(declare-fun y$a_start_Node_8 () Bool)
(declare-fun y$a_start_Node_9 () Bool)
(declare-fun y$a_start_Token () Bool)
(declare-fun y$a_wait_ok_Node_0 () Bool)
(declare-fun y$a_wait_ok_Node_1 () Bool)
(declare-fun y$a_wait_ok_Node_2 () Bool)
(declare-fun y$a_wait_ok_Node_3 () Bool)
(declare-fun y$a_wait_ok_Node_4 () Bool)
(declare-fun y$a_wait_ok_Node_5 () Bool)
(declare-fun y$a_wait_ok_Node_6 () Bool)
(declare-fun y$a_wait_ok_Node_7 () Bool)
(declare-fun y$a_wait_ok_Node_8 () Bool)
(declare-fun y$a_wait_ok_Node_9 () Bool)
(declare-fun y$a_want_RT_Node_0 () Bool)
(declare-fun y$a_want_RT_Node_1 () Bool)
(declare-fun y$a_want_RT_Node_2 () Bool)
(declare-fun y$a_want_RT_Node_3 () Bool)
(declare-fun y$a_want_RT_Node_4 () Bool)
(declare-fun y$a_want_RT_Node_5 () Bool)
(declare-fun y$a_want_RT_Node_6 () Bool)
(declare-fun y$a_want_RT_Node_7 () Bool)
(declare-fun y$a_want_RT_Node_8 () Bool)
(declare-fun y$a_want_RT_Node_9 () Bool)
(declare-fun y$dve_invalid () Bool)
(declare-fun y$id138 () Bool)
(declare-fun y$id138_op () Bool)
(declare-fun y$n0s32 () utt$32)
(declare-fun y$n0s8 () utt$8)
(declare-fun y$n10s32 () utt$32)
(declare-fun y$n10s8 () utt$8)
(declare-fun y$n1s32 () utt$32)
(declare-fun y$n1s8 () utt$8)
(declare-fun y$n2s32 () utt$32)
(declare-fun y$n2s8 () utt$8)
(declare-fun y$n3s8 () utt$8)
(declare-fun y$n4s32 () utt$32)
(declare-fun y$n4s8 () utt$8)
(declare-fun y$n5s8 () utt$8)
(declare-fun y$n6s8 () utt$8)
(declare-fun y$n7s8 () utt$8)
(declare-fun y$n8s8 () utt$8)
(declare-fun y$n9s8 () utt$8)
(declare-fun y$prop () Bool)
(declare-fun y$v_NRT_count () utt$8)
(declare-fun y$v_RT_count () utt$8)
(declare-fun y$v_granted_Node_0 () utt$8)
(declare-fun y$v_granted_Node_1 () utt$8)
(declare-fun y$v_granted_Node_2 () utt$8)
(declare-fun y$v_granted_Node_3 () utt$8)
(declare-fun y$v_granted_Node_4 () utt$8)
(declare-fun y$v_granted_Node_5 () utt$8)
(declare-fun y$v_granted_Node_6 () utt$8)
(declare-fun y$v_granted_Node_7 () utt$8)
(declare-fun y$v_granted_Node_8 () utt$8)
(declare-fun y$v_granted_Node_9 () utt$8)
(declare-fun y$v_i_Bandwidth () utt$8)
(declare-fun y$v_i_Token () utt$8)
(declare-fun y$v_in_RT_0 () utt$8)
(declare-fun y$v_in_RT_1 () utt$8)
(declare-fun y$v_in_RT_2 () utt$8)
(declare-fun y$v_in_RT_3 () utt$8)
(declare-fun y$v_in_RT_4 () utt$8)
(declare-fun y$v_in_RT_5 () utt$8)
(declare-fun y$v_in_RT_6 () utt$8)
(declare-fun y$v_in_RT_7 () utt$8)
(declare-fun y$v_in_RT_8 () utt$8)
(declare-fun y$v_in_RT_9 () utt$8)
(declare-fun y$v_next () utt$8)
(declare-fun y$v_rt_Node_0 () utt$8)
(declare-fun y$v_rt_Node_1 () utt$8)
(declare-fun y$v_rt_Node_2 () utt$8)
(declare-fun y$v_rt_Node_3 () utt$8)
(declare-fun y$v_rt_Node_4 () utt$8)
(declare-fun y$v_rt_Node_5 () utt$8)
(declare-fun y$v_rt_Node_6 () utt$8)
(declare-fun y$v_rt_Node_7 () utt$8)
(declare-fun y$v_rt_Node_8 () utt$8)
(declare-fun y$v_rt_Node_9 () utt$8)
(assert (distinct y$n0s8 y$n1s8 y$n2s8 y$n3s8 y$n4s8 y$n5s8 y$n6s8 y$n7s8 y$n8s8 y$n9s8 y$n10s8))
(assert (distinct y$n1s32 y$n4s32 y$n10s32 y$n2s32 y$n0s32))
(assert (= y$a_NRT_action_Node_0 (not y$1)))
(assert (= y$a_NRT_action_Node_1 (not y$3)))
(assert (= y$a_NRT_action_Node_2 (not y$5)))
(assert (= y$a_NRT_action_Node_3 (not y$7)))
(assert (= y$a_NRT_action_Node_4 (not y$9)))
(assert (= y$a_NRT_action_Node_5 (not y$11)))
(assert (= y$a_NRT_action_Node_6 (not y$13)))
(assert (= y$a_NRT_action_Node_7 (not y$15)))
(assert (= y$a_NRT_action_Node_8 (not y$17)))
(assert (= y$a_NRT_action_Node_9 (not y$19)))
(assert (= y$a_NRT_phase (not y$21)))
(assert (= y$a_NRT_wait (not y$23)))
(assert (= y$a_RT_action_Node_0 (not y$25)))
(assert (= y$a_RT_action_Node_1 (not y$27)))
(assert (= y$a_RT_action_Node_2 (not y$29)))
(assert (= y$a_RT_action_Node_3 (not y$31)))
(assert (= y$a_RT_action_Node_4 (not y$33)))
(assert (= y$a_RT_action_Node_5 (not y$35)))
(assert (= y$a_RT_action_Node_6 (not y$37)))
(assert (= y$a_RT_action_Node_7 (not y$39)))
(assert (= y$a_RT_action_Node_8 (not y$41)))
(assert (= y$a_RT_action_Node_9 (not y$43)))
(assert (= y$a_RT_phase (not y$45)))
(assert (= y$a_RT_wait (not y$47)))
(assert (= y$a_cycle_end (not y$49)))
(assert (= y$a_error_st_Bandwidth (not y$51)))
(assert (= y$a_error_st_Node_0 (not y$53)))
(assert (= y$a_error_st_Node_1 (not y$55)))
(assert (= y$a_error_st_Node_2 (not y$57)))
(assert (= y$a_error_st_Node_3 (not y$59)))
(assert (= y$a_error_st_Node_4 (not y$61)))
(assert (= y$a_error_st_Node_5 (not y$63)))
(assert (= y$a_error_st_Node_6 (not y$65)))
(assert (= y$a_error_st_Node_7 (not y$67)))
(assert (= y$a_error_st_Node_8 (not y$69)))
(assert (= y$a_error_st_Node_9 (not y$71)))
(assert (= y$a_finish_Node_0 (not y$73)))
(assert (= y$a_finish_Node_1 (not y$75)))
(assert (= y$a_finish_Node_2 (not y$77)))
(assert (= y$a_finish_Node_3 (not y$79)))
(assert (= y$a_finish_Node_4 (not y$81)))
(assert (= y$a_finish_Node_5 (not y$83)))
(assert (= y$a_finish_Node_6 (not y$85)))
(assert (= y$a_finish_Node_7 (not y$87)))
(assert (= y$a_finish_Node_8 (not y$89)))
(assert (= y$a_finish_Node_9 (not y$91)))
(assert (= y$a_idle_Bandwidth (not y$93)))
(assert (= y$a_idle_Node_0 (not y$95)))
(assert (= y$a_idle_Node_1 (not y$97)))
(assert (= y$a_idle_Node_2 (not y$99)))
(assert (= y$a_idle_Node_3 (not y$101)))
(assert (= y$a_idle_Node_4 (not y$103)))
(assert (= y$a_idle_Node_5 (not y$105)))
(assert (= y$a_idle_Node_6 (not y$107)))
(assert (= y$a_idle_Node_7 (not y$109)))
(assert (= y$a_idle_Node_8 (not y$111)))
(assert (= y$a_idle_Node_9 (not y$113)))
(assert (= y$a_rel (not y$115)))
(assert (= y$a_res (not y$117)))
(assert (= y$a_reserved_Node_0 (not y$119)))
(assert (= y$a_reserved_Node_1 (not y$121)))
(assert (= y$a_reserved_Node_2 (not y$123)))
(assert (= y$a_reserved_Node_3 (not y$125)))
(assert (= y$a_reserved_Node_4 (not y$127)))
(assert (= y$a_reserved_Node_5 (not y$129)))
(assert (= y$a_reserved_Node_6 (not y$131)))
(assert (= y$a_reserved_Node_7 (not y$133)))
(assert (= y$a_reserved_Node_8 (not y$135)))
(assert (= y$a_reserved_Node_9 (not y$137)))
(assert (= y$a_start_Node_0 (not y$139)))
(assert (= y$a_start_Node_1 (not y$141)))
(assert (= y$a_start_Node_2 (not y$143)))
(assert (= y$a_start_Node_3 (not y$145)))
(assert (= y$a_start_Node_4 (not y$147)))
(assert (= y$a_start_Node_5 (not y$149)))
(assert (= y$a_start_Node_6 (not y$151)))
(assert (= y$a_start_Node_7 (not y$153)))
(assert (= y$a_start_Node_8 (not y$155)))
(assert (= y$a_start_Node_9 (not y$157)))
(assert (= y$a_start_Token (not y$159)))
(assert (= y$a_wait_ok_Node_0 (not y$161)))
(assert (= y$a_wait_ok_Node_1 (not y$163)))
(assert (= y$a_wait_ok_Node_2 (not y$165)))
(assert (= y$a_wait_ok_Node_3 (not y$167)))
(assert (= y$a_wait_ok_Node_4 (not y$169)))
(assert (= y$a_wait_ok_Node_5 (not y$171)))
(assert (= y$a_wait_ok_Node_6 (not y$173)))
(assert (= y$a_wait_ok_Node_7 (not y$175)))
(assert (= y$a_wait_ok_Node_8 (not y$177)))
(assert (= y$a_wait_ok_Node_9 (not y$179)))
(assert (= y$a_want_RT_Node_0 (not y$181)))
(assert (= y$a_want_RT_Node_1 (not y$183)))
(assert (= y$a_want_RT_Node_2 (not y$185)))
(assert (= y$a_want_RT_Node_3 (not y$187)))
(assert (= y$a_want_RT_Node_4 (not y$189)))
(assert (= y$a_want_RT_Node_5 (not y$191)))
(assert (= y$a_want_RT_Node_6 (not y$193)))
(assert (= y$a_want_RT_Node_7 (not y$195)))
(assert (= y$a_want_RT_Node_8 (not y$197)))
(assert (= y$a_want_RT_Node_9 (not y$199)))
(assert (= y$dve_invalid (not y$201)))
(assert (= y$204 (= y$n0s8 y$v_NRT_count)))
(assert (= y$206 (= y$n0s8 y$v_RT_count)))
(assert (= y$208 (= y$n0s8 y$v_granted_Node_0)))
(assert (= y$210 (= y$n0s8 y$v_granted_Node_1)))
(assert (= y$212 (= y$n0s8 y$v_granted_Node_2)))
(assert (= y$214 (= y$n0s8 y$v_granted_Node_3)))
(assert (= y$216 (= y$n0s8 y$v_granted_Node_4)))
(assert (= y$218 (= y$n0s8 y$v_granted_Node_5)))
(assert (= y$220 (= y$n0s8 y$v_granted_Node_6)))
(assert (= y$222 (= y$n0s8 y$v_granted_Node_7)))
(assert (= y$224 (= y$n0s8 y$v_granted_Node_8)))
(assert (= y$226 (= y$n0s8 y$v_granted_Node_9)))
(assert (= y$228 (= y$n0s8 y$v_i_Bandwidth)))
(assert (= y$230 (= y$n0s8 y$v_i_Token)))
(assert (= y$232 (= y$n0s8 y$v_in_RT_0)))
(assert (= y$234 (= y$n0s8 y$v_in_RT_1)))
(assert (= y$236 (= y$n0s8 y$v_in_RT_2)))
(assert (= y$238 (= y$n0s8 y$v_in_RT_3)))
(assert (= y$240 (= y$n0s8 y$v_in_RT_4)))
(assert (= y$242 (= y$n0s8 y$v_in_RT_5)))
(assert (= y$244 (= y$n0s8 y$v_in_RT_6)))
(assert (= y$246 (= y$n0s8 y$v_in_RT_7)))
(assert (= y$248 (= y$n0s8 y$v_in_RT_8)))
(assert (= y$250 (= y$n0s8 y$v_in_RT_9)))
(assert (= y$252 (= y$n0s8 y$v_next)))
(assert (= y$254 (= y$n0s8 y$v_rt_Node_0)))
(assert (= y$256 (= y$n0s8 y$v_rt_Node_1)))
(assert (= y$258 (= y$n0s8 y$v_rt_Node_2)))
(assert (= y$260 (= y$n0s8 y$v_rt_Node_3)))
(assert (= y$262 (= y$n0s8 y$v_rt_Node_4)))
(assert (= y$264 (= y$n0s8 y$v_rt_Node_5)))
(assert (= y$266 (= y$n0s8 y$v_rt_Node_6)))
(assert (= y$268 (= y$n0s8 y$v_rt_Node_7)))
(assert (= y$270 (= y$n0s8 y$v_rt_Node_8)))
(assert (= y$272 (= y$n0s8 y$v_rt_Node_9)))
(assert (= y$prop (not y$8617)))
(assert (= y$id138_op (and y$a_error_st_Node_0 y$201)))
(assert (= y$id138_op (not y$8453)))
(assert (= y$8454 (= y$prop y$8453)))
(assert (= y$8624 (and y$1 y$3 y$5 y$7 y$9 y$11 y$13 y$15 y$17 y$19 y$21 y$23 y$25 y$27 y$29 y$31 y$33 y$35 y$37 y$39 y$41 y$43 y$45 y$47 y$49 y$51 y$53 y$55 y$57 y$59 y$61 y$63 y$65 y$67 y$69 y$71 y$73 y$75 y$77 y$79 y$81 y$83 y$85 y$87 y$89 y$91 y$93 y$95 y$97 y$99 y$101 y$103 y$105 y$107 y$109 y$111 y$113 y$115 y$117 y$119 y$121 y$123 y$125 y$127 y$129 y$131 y$133 y$135 y$137 y$139 y$141 y$143 y$145 y$147 y$149 y$151 y$153 y$155 y$157 y$159 y$161 y$163 y$165 y$167 y$169 y$171 y$173 y$175 y$177 y$179 y$181 y$183 y$185 y$187 y$189 y$191 y$193 y$195 y$197 y$199 y$201 y$204 y$206 y$208 y$210 y$212 y$214 y$216 y$218 y$220 y$222 y$224 y$226 y$228 y$230 y$232 y$234 y$236 y$238 y$240 y$242 y$244 y$246 y$248 y$250 y$252 y$254 y$256 y$258 y$260 y$262 y$264 y$266 y$268 y$270 y$272 y$8617 y$8454)))
(assert y$8624)
(check-sat)
(exit)
